experiment/data/hgs-res/Vrp-Set-B-n31/Vrp-Set-B-n31-hgs/0.hgs1.vrp
NAME : 0
COMMENT : CVRP Instance
TYPE : CVRP
DIMENSION : 31
EDGE_WEIGHT_TYPE : EUC_2D
CAPACITY : 100
NODE_COORD_SECTION
1	17.0	76.0
2	24.0	6.0
3	96.0	29.0
4	14.0	19.0
5	14.0	32.0
6	0.0	34.0
7	16.0	22.0
8	20.0	26.0
9	22.0	28.0
10	17.0	23.0
11	98.0	30.0
12	30.0	8.0
13	23.0	27.0
14	19.0	23.0
15	34.0	7.0
16	31.0	7.0
17	0.0	37.0
18	19.0	23.0
19	0.0	36.0
20	26.0	7.0
21	98.0	32.0
22	5.0	40.0
23	17.0	26.0
24	21.0	26.0
25	28.0	8.0
26	1.0	35.0
27	27.0	28.0
28	99.0	30.0
29	26.0	28.0
30	17.0	29.0
31	20.0	26.0
DEMAND_SECTION
1	0
2	25
3	3
4	13
5	17
6	16
7	9
8	22
9	10
10	16
11	8
12	3
13	16
14	16
15	10
16	24
17	16
18	15
19	14
20	5
21	12
22	2
23	18
24	20
25	15
26	8
27	22
28	15
29	10
30	13
31	19
DEPOT_SECTION
1
-1
EOF
