experiment/data/hgs-res/Vrp-Set-B-n31/Vrp-Set-B-n31-hgs/0.hgs1.log
=========== Algorithm Parameters =================
---- nbGranular        is set to 20
---- mu                is set to 25
---- lambda            is set to 40
---- nbElite           is set to 4
---- nbClose           is set to 5
---- targetFeasible    is set to 0.2
---- seed              is set to 1234
---- nbIter            is set to 20000
---- timeLimit         is set to 0
---- useSwapStar       is set to 1
==================================================
----- READING INSTANCE: baseline_results/cvrp_hgs/Vrp-Set-B-n31/Vrp-Set-B-n31-hgs/0.hgs1.vrp
----- FLEET SIZE WAS NOT SPECIFIED: DEFAULT INITIALIZATION TO 9 VEHICLES
----- INSTANCE SUCCESSFULLY LOADED WITH 30 CLIENTS AND 9 VEHICLES
----- BUILDING INITIAL POPULATION
----- STARTING GENETIC ALGORITHM
It      0      2 | T(s) 0.04 | Feas 38 676.09 679.27 | Inf 33 648.43 652.05 | Div 0.28 0.36 | Feas 0.67 1.00 | Pen 3.37 0.85
It    500    502 | T(s) 0.21 | Feas 32 676.09 680.49 | Inf 40 643.04 645.19 | Div 0.36 0.36 | Feas 0.03 1.00 | Pen 2.93 0.38
It   1000   1002 | T(s) 0.35 | Feas 31 676.09 680.14 | Inf 65 643.75 645.06 | Div 0.35 0.28 | Feas 0.12 1.00 | Pen 2.98 0.17
It   1500   1502 | T(s) 0.49 | Feas 39 676.09 677.81 | Inf 33 639.25 640.87 | Div 0.25 0.36 | Feas 0.35 1.00 | Pen 2.64 0.10
It   2000   2002 | T(s) 0.63 | Feas 54 676.09 679.15 | Inf 62 647.47 648.49 | Div 0.30 0.29 | Feas 0.11 1.00 | Pen 3.29 0.10
It   2500   2502 | T(s) 0.77 | Feas 26 676.09 681.97 | Inf 31 642.90 645.18 | Div 0.39 0.38 | Feas 0.07 1.00 | Pen 2.91 0.10
It   3000   3002 | T(s) 0.91 | Feas 37 676.09 678.92 | Inf 52 638.01 639.73 | Div 0.31 0.33 | Feas 0.34 1.00 | Pen 2.58 0.10
It   3500   3502 | T(s) 1.05 | Feas 52 676.09 678.54 | Inf 40 646.54 648.29 | Div 0.27 0.32 | Feas 0.08 1.00 | Pen 3.22 0.10
It   4000   4002 | T(s) 1.19 | Feas 25 676.09 681.06 | Inf 51 648.10 649.53 | Div 0.38 0.31 | Feas 0.13 1.00 | Pen 3.35 0.10
It   4500   4502 | T(s) 1.33 | Feas 54 676.09 678.94 | Inf 58 642.76 643.75 | Div 0.28 0.28 | Feas 0.18 1.00 | Pen 2.90 0.10
It   5000   5002 | T(s) 1.47 | Feas 51 676.09 677.85 | Inf 64 636.79 638.43 | Div 0.23 0.29 | Feas 0.36 1.00 | Pen 2.52 0.10
It   5500   5502 | T(s) 1.62 | Feas 28 676.09 681.00 | Inf 55 638.82 640.17 | Div 0.38 0.29 | Feas 0.26 1.00 | Pen 2.62 0.10
It   6000   6002 | T(s) 1.77 | Feas 37 676.09 679.57 | Inf 56 647.15 648.71 | Div 0.33 0.31 | Feas 0.09 1.00 | Pen 3.27 0.10
It   6500   6502 | T(s) 1.90 | Feas 55 676.09 678.95 | Inf 60 648.73 650.04 | Div 0.27 0.29 | Feas 0.11 1.00 | Pen 3.40 0.10
It   7000   7002 | T(s) 2.05 | Feas 26 676.09 681.40 | Inf 44 643.31 644.79 | Div 0.39 0.30 | Feas 0.01 1.00 | Pen 2.95 0.10
It   7500   7502 | T(s) 2.20 | Feas 60 676.09 678.54 | Inf 31 644.74 647.40 | Div 0.25 0.37 | Feas 0.12 1.00 | Pen 3.07 0.10
It   8000   8002 | T(s) 2.34 | Feas 44 676.09 678.62 | Inf 52 646.22 647.72 | Div 0.28 0.31 | Feas 0.12 1.00 | Pen 3.19 0.10
It   8500   8502 | T(s) 2.48 | Feas 39 676.09 678.80 | Inf 51 641.79 642.92 | Div 0.30 0.30 | Feas 0.39 1.00 | Pen 2.82 0.10
It   9000   9002 | T(s) 2.63 | Feas 60 676.09 678.46 | Inf 62 648.57 649.48 | Div 0.26 0.27 | Feas 0.12 1.00 | Pen 3.39 0.10
It   9500   9502 | T(s) 2.78 | Feas 44 676.09 678.87 | Inf 47 643.16 644.71 | Div 0.28 0.31 | Feas 0.02 1.00 | Pen 2.94 0.10
It  10000  10002 | T(s) 2.92 | Feas 32 676.09 680.40 | Inf 26 638.40 641.67 | Div 0.36 0.42 | Feas 0.28 1.00 | Pen 2.60 0.10
It  10500  10502 | T(s) 3.06 | Feas 49 676.09 678.23 | Inf 44 646.83 648.90 | Div 0.23 0.31 | Feas 0.13 1.00 | Pen 3.24 0.10
It  11000  11002 | T(s) 3.19 | Feas 30 676.09 679.45 | Inf 33 642.33 644.21 | Div 0.34 0.36 | Feas 0.37 1.00 | Pen 2.87 0.10
It  11500  11502 | T(s) 3.34 | Feas 52 676.09 678.81 | Inf 55 643.72 645.33 | Div 0.28 0.30 | Feas 0.06 1.00 | Pen 2.98 0.10
It  12000  12002 | T(s) 3.48 | Feas 65 676.09 677.02 | Inf 39 639.22 640.87 | Div 0.18 0.34 | Feas 0.26 1.00 | Pen 2.64 0.10
It  12500  12502 | T(s) 3.62 | Feas 38 676.09 679.45 | Inf 59 640.86 641.66 | Div 0.33 0.30 | Feas 0.16 1.00 | Pen 2.74 0.10
It  13000  13002 | T(s) 3.76 | Feas 40 676.09 679.37 | Inf 47 641.52 642.31 | Div 0.33 0.29 | Feas 0.16 1.00 | Pen 2.80 0.10
It  13500  13502 | T(s) 3.90 | Feas 43 676.09 678.72 | Inf 43 642.88 644.28 | Div 0.27 0.31 | Feas 0.48 1.00 | Pen 2.91 0.10
It  14000  14002 | T(s) 4.04 | Feas 49 676.09 678.53 | Inf 64 642.88 643.23 | Div 0.27 0.21 | Feas 0.23 1.00 | Pen 2.91 0.10
It  14500  14502 | T(s) 4.18 | Feas 62 676.09 678.26 | Inf 64 636.96 638.56 | Div 0.26 0.27 | Feas 0.26 1.00 | Pen 2.52 0.10
It  15000  15002 | T(s) 4.32 | Feas 34 676.09 679.44 | Inf 49 645.76 647.41 | Div 0.33 0.32 | Feas 0.11 1.00 | Pen 3.15 0.10
It  15500  15502 | T(s) 4.46 | Feas 60 676.09 678.21 | Inf 29 647.28 649.60 | Div 0.26 0.37 | Feas 0.11 1.00 | Pen 3.28 0.10
It  16000  16002 | T(s) 4.60 | Feas 25 676.09 683.24 | Inf 55 648.87 649.89 | Div 0.40 0.29 | Feas 0.15 1.00 | Pen 3.41 0.10
It  16500  16502 | T(s) 4.74 | Feas 34 676.09 679.78 | Inf 30 644.14 646.85 | Div 0.34 0.39 | Feas 0.02 1.00 | Pen 3.02 0.10
It  17000  17002 | T(s) 4.89 | Feas 35 676.09 679.39 | Inf 32 639.83 641.67 | Div 0.33 0.37 | Feas 0.32 1.00 | Pen 2.67 0.10
It  17500  17502 | T(s) 5.03 | Feas 41 676.09 678.98 | Inf 65 641.24 641.56 | Div 0.30 0.19 | Feas 0.31 1.00 | Pen 2.78 0.10
It  18000  18002 | T(s) 5.18 | Feas 32 676.09 679.02 | Inf 36 642.59 644.28 | Div 0.32 0.35 | Feas 0.38 1.00 | Pen 2.89 0.10
It  18500  18502 | T(s) 5.32 | Feas 42 676.09 678.84 | Inf 29 642.59 644.71 | Div 0.28 0.39 | Feas 0.22 1.00 | Pen 2.89 0.10
It  19000  19002 | T(s) 5.46 | Feas 49 676.09 678.14 | Inf 50 643.28 644.22 | Div 0.25 0.28 | Feas 0.18 1.00 | Pen 2.95 0.10
It  19500  19502 | T(s) 5.61 | Feas 31 676.09 679.31 | Inf 33 638.57 640.29 | Div 0.34 0.35 | Feas 0.31 1.00 | Pen 2.60 0.10
----- GENETIC ALGORITHM FINISHED AFTER 20000 ITERATIONS. TIME SPENT: 5.74648
----- WRITING BEST SOLUTION IN : baseline_results/cvrp_hgs/Vrp-Set-B-n31/Vrp-Set-B-n31-hgs/0.hgs1.tour
