experiment/data/hgs-res/Vrp-Set-B-n31/Vrp-Set-B-n31-hgs/0.hgs1.tour
Route #1: 29 4 25 5 18 16 21
Route #2: 7 17 13 9 6 22
Route #3: 8 30 23 12 28 26
Route #4: 3 1 19 24 11 15 14
Route #5: 20 27 10 2
Cost 676.088
